r = [
0,293,84,138,298,157,334,151,66,117,75,35,335,170,150,290,303,90,9,317,171,337,345,51,200,110,0
];
p = [
0,3,22,19,12,29,5,23,14,9,19,19,26,10,19,28,17,12,3,5,12,1,22,14,25,30,0
];
e = [
0,14,10,12,18,3,7,13,9,9,17,13,14,14,17,4,6,2,11,14,11,13,10,17,17,6,0
];
d = [
0,296,213,157,422,186,391,176,80,141,94,131,418,247,169,362,405,107,12,404,183,455,367,154,225,178,456
];
d_bar = [
0,298,224,167,428,201,394,188,87,146,104,141,431,252,179,376,414,113,14,407,189,456,378,161,238,193,456
];
w = [
0,7,0.909090909,1.2,3,0.2,2.333333333,1.083333333,1.285714286,1.8,1.7,1.3,1.076923077,2.8,1.7,0.285714286,0.666666667,0.333333333,5.5,4.666666667,1.833333333,13,0.909090909,2.428571429,1.307692308,0.4,0
];
